sat
(
  (define-fun E () String
    "dfccafffaf")
  (define-fun D () String
    "deeedabdfcffb")
  (define-fun H () String
    "")
  (define-fun C () String
    "fdfeacdaefdfaaee")
  (define-fun I () String
    "bdfcf")
  (define-fun F () String
    "caaf")
)
